NAME qcp_demo
ROWS
 N  OBJ
 L  qc1     
COLUMNS
    x         OBJ       1
    y         OBJ       1
RHS
    RHS1      qc1       1
BOUNDS
 FR BND1      x       
 FR BND1      y       
QCMATRIX   qc1     
    x         x         1
    y         y         1
ENDATA
